Geographic Exponential Decay
20 318 224 68 189 118 38 163 309 312 286 54 26 236 255 85 86 288 105 3 214
p edge 320 321
e 0 291 1.0
e 1 25 1.0
e 1 0 1.0
e 2 20 4.0
e 2 1 2.0
e 3 185 57.0
e 3 248 68.0
e 3 241 70.0
e 3 302 98.0
e 3 31 22.0
e 3 2 4.0
e 4 278 1.0
e 4 3 36.0
e 5 80 1.0
e 5 4 2.0
e 6 177 2.0
e 6 5 3.0
e 7 23 5.0
e 7 6 10.0
e 8 126 2.0
e 8 7 6.0
e 9 96 4.0
e 9 8 9.0
e 10 142 1.0
e 10 9 7.0
e 11 39 10.0
e 11 10 1.0
e 12 276 1.0
e 12 11 4.0
e 13 228 1.0
e 13 12 1.0
e 14 98 9.0
e 14 13 2.0
e 15 283 11.0
e 15 14 6.0
e 16 305 4.0
e 16 15 4.0
e 17 190 21.0
e 17 169 19.0
e 17 16 1.0
e 18 24 1.0
e 18 17 8.0
e 19 32 5.0
e 19 18 1.0
e 21 244 5.0
e 21 19 7.0
e 22 26 52.0
e 22 21 10.0
e 26 72 18.0
e 26 104 34.0
e 26 286 57.0
e 26 288 48.0
e 27 36 4.0
e 27 69 5.0
e 27 22 3.0
e 28 216 1.0
e 28 27 23.0
e 29 30 24.0
e 29 170 24.0
e 29 28 13.0
e 33 237 3.0
e 33 29 6.0
e 34 70 4.0
e 34 33 3.0
e 35 181 1.0
e 35 34 1.0
e 37 38 70.0
e 37 35 6.0
e 38 61 31.0
e 38 256 54.0
e 38 40 14.0
e 38 154 32.0
e 41 192 21.0
e 41 37 1.0
e 42 157 2.0
e 42 41 1.0
e 43 81 23.0
e 43 42 8.0
e 44 222 9.0
e 44 43 10.0
e 45 318 94.0
e 45 44 3.0
e 46 245 10.0
e 46 246 19.0
e 46 45 12.0
e 47 63 20.0
e 47 114 5.0
e 47 46 24.0
e 48 317 1.0
e 48 47 3.0
e 49 147 6.0
e 49 48 3.0
e 50 171 2.0
e 50 49 1.0
e 51 277 6.0
e 51 274 21.0
e 51 50 11.0
e 52 221 11.0
e 52 51 13.0
e 53 123 31.0
e 53 239 37.0
e 53 250 33.0
e 53 52 42.0
e 54 74 57.0
e 54 257 37.0
e 54 206 59.0
e 54 132 51.0
e 54 311 39.0
e 54 53 87.0
e 55 252 17.0
e 55 306 7.0
e 55 54 96.0
e 56 159 1.0
e 56 55 4.0
e 57 272 2.0
e 57 56 1.0
e 58 65 2.0
e 58 57 4.0
e 59 60 3.0
e 59 58 3.0
e 62 108 6.0
e 62 59 1.0
e 64 194 1.0
e 64 62 1.0
e 66 279 3.0
e 66 64 3.0
e 67 94 4.0
e 67 66 11.0
e 68 257 41.0
e 68 214 46.0
e 68 271 39.0
e 68 226 55.0
e 68 145 88.0
e 71 73 2.0
e 71 67 11.0
e 75 191 4.0
e 75 71 6.0
e 76 203 1.0
e 76 75 8.0
e 77 78 1.0
e 77 76 3.0
e 78 79 24.0
e 81 220 19.0
e 82 178 8.0
e 82 77 1.0
e 83 309 75.0
e 84 85 63.0
e 84 82 9.0
e 85 119 46.0
e 85 196 6.0
e 85 146 41.0
e 85 124 74.0
e 86 87 99.0
e 86 247 24.0
e 86 259 21.0
e 86 195 52.0
e 86 105 62.0
e 86 84 92.0
e 88 149 4.0
e 88 86 27.0
e 89 90 2.0
e 89 88 7.0
e 91 92 4.0
e 91 89 2.0
e 93 183 1.0
e 93 91 3.0
e 95 101 4.0
e 95 93 6.0
e 97 98 18.0
e 99 192 10.0
e 100 102 2.0
e 100 95 1.0
e 103 242 4.0
e 103 100 6.0
e 105 106 20.0
e 105 300 8.0
e 105 304 23.0
e 105 238 94.0
e 107 109 5.0
e 107 103 2.0
e 110 111 1.0
e 110 263 33.0
e 110 318 91.0
e 112 135 7.0
e 112 107 1.0
e 113 115 5.0
e 113 112 1.0
e 116 117 1.0
e 116 113 2.0
e 118 307 55.0
e 118 120 94.0
e 118 217 28.0
e 118 172 35.0
e 118 262 55.0
e 118 116 94.0
e 121 290 1.0
e 121 118 21.0
e 122 125 4.0
e 122 121 1.0
e 127 128 1.0
e 127 122 2.0
e 129 227 5.0
e 129 127 2.0
e 130 303 4.0
e 130 129 2.0
e 131 133 7.0
e 131 130 1.0
e 134 136 2.0
e 134 131 3.0
e 137 138 5.0
e 137 139 25.0
e 137 134 11.0
e 139 140 3.0
e 141 160 3.0
e 141 137 10.0
e 143 144 18.0
e 143 141 3.0
e 144 148 10.0
e 150 151 25.0
e 150 143 1.0
e 151 152 7.0
e 153 155 3.0
e 153 150 3.0
e 156 249 3.0
e 156 153 2.0
e 158 236 7.0
e 158 156 1.0
e 161 162 12.0
e 161 158 1.0
e 163 285 32.0
e 163 197 76.0
e 163 193 75.0
e 163 209 18.0
e 163 164 6.0
e 163 161 35.0
e 165 166 1.0
e 165 163 37.0
e 167 168 2.0
e 167 284 23.0
e 167 207 50.0
e 167 165 7.0
e 169 213 19.0
e 169 173 4.0
e 174 175 6.0
e 174 167 30.0
e 176 277 18.0
e 179 318 39.0
e 180 182 11.0
e 180 174 1.0
e 182 184 6.0
e 186 255 84.0
e 186 180 1.0
e 187 188 2.0
e 187 186 5.0
e 189 282 25.0
e 189 313 35.0
e 189 198 14.0
e 189 199 46.0
e 189 200 96.0
e 201 202 2.0
e 201 187 1.0
e 204 205 5.0
e 204 201 3.0
e 208 210 1.0
e 208 211 39.0
e 208 212 29.0
e 208 204 12.0
e 214 215 14.0
e 214 218 24.0
e 214 280 69.0
e 214 219 17.0
e 223 240 19.0
e 224 225 46.0
e 224 229 32.0
e 224 230 48.0
e 224 292 35.0
e 224 231 22.0
e 230 274 6.0
e 232 265 1.0
e 232 208 42.0
e 233 234 1.0
e 233 232 1.0
e 235 236 10.0
e 236 240 3.0
e 236 251 35.0
e 236 301 26.0
e 243 253 14.0
e 243 264 2.0
e 243 233 2.0
e 254 255 34.0
e 255 258 73.0
e 255 260 38.0
e 255 261 25.0
e 266 293 1.0
e 266 267 10.0
e 266 243 17.0
e 268 269 12.0
e 268 266 1.0
e 270 273 1.0
e 270 268 5.0
e 275 281 5.0
e 275 270 5.0
e 286 297 6.0
e 286 287 37.0
e 286 288 86.0
e 286 289 16.0
e 288 289 48.0
e 288 294 10.0
e 288 295 51.0
e 289 296 26.0
e 298 299 24.0
e 298 308 3.0
e 308 309 22.0
e 308 310 11.0
e 309 312 54.0
e 309 313 98.0
e 309 314 8.0
e 312 315 38.0
e 312 316 65.0
e 312 318 48.0
e 312 319 88.0
